100
32
24
28
9
5
17
27
25
29
17
21
8
9
8
11
4
17
1
5
1
2
2
5
17
2
1
3
1
1
1
2
3
17
8
1
17
1
2
1
1
3
17
1
1
2
2
1
7
18
1
4
3
17
5
5
1
1
4
17
1
7
1
2
5
1
2
1
2
3
1
1
1
1
1
2
2
3
17
2
7
3
17
1
3
5
19
1
2
1
1
3
1
2
2
3
3
2
2
2
2
1